1490
3561
8065
6929
5854
9690
5597
6952
3809
3880
6193
8581
9175
8299
4233
1873
591
9810
9018
2798
4598
6505
9044
8728
7469
3147
4977
9488
6491
9750
2664
2176
3764
3327
9148
5014
2393
697
540
6947
6704
3390
819
6084
2100
7308
6509
5798
5822
7033
